12 24 9 10
9 8 3 12 3 3 16 12 20 19 5 8 7 4 20 18 4 16 6 18 9 2 7 8 
14.99 3.66 9.11 15.68 3.77 13.43 2.1 1.47 12.03 0.41 4.24 0.61 7.07 5.57 5.47 11.3 3.29 4.54 11.22 15.91 10.51 15.28 5.1 4.64 
1.87 13.09 13.63 14.6 11.88 10.95 6.58 8.69 7.76 10.26 14.98 8.23 2.94 0.43 9.46 7.56 5.63 10.09 6.69 1.56 5.24 5.46 5.74 9.14 
10.85 0.74 13.39 1.77 12.86 14.38 13.58 0.31 0.51 14.64 12.85 0.39 12.9 3.55 2.8 8.74 13.14 7.21 11.55 8.63 2.22 9.79 5.35 10.8 
13.51 9.49 9.51 6.15 12.77 8.77 15.31 4.63 11.33 2.71 5.23 8.46 3.7 2.23 9.67 0.14 10.59 11.44 5.55 3.42 0.08 0.84 5.32 13.28 
1.9 7.95 5.69 2.72 6.12 3.03 15.39 9.55 11.13 15.52 1.78 8.01 14.66 14.01 10.66 3.26 8.11 5.66 0.31 7.37 2.38 5.36 14.39 7.18 
0.7 13.35 14.7 10.88 14.02 8.72 10.48 5.92 2.22 3.08 3.99 7.35 4.46 4.65 15.02 11.93 5.67 2.41 15.17 3.68 12.2 7.69 1.47 14.5 
4.33 4.82 9.39 6.12 12.45 9.66 3.36 4.83 1.62 13.83 8.68 14.67 9.06 5.23 15.21 4.35 4.24 11.14 4.36 14.52 3.4 8.16 1.2 15.1 
9.14 5.76 2.91 12.63 10.69 1.57 5.13 3.5 12.86 2.47 0.67 9.26 5.6 0.52 4.85 10.19 12.93 10.06 7.17 0.52 2.35 1.38 2.71 11.11 
0.74 4.61 8.83 2.62 1.04 7.03 8.62 13.41 4.3 15 4.6 0.75 8.23 2.09 13.34 15.46 13.37 2.58 4.5 10.47 11.26 15.74 6.6 9.48 
8 8 8 8 8 8 8 8 8 8 8 8 8 8 8 8 8 8 8 8 8 8 8 8 
14.9 7.26 7.15 13.6 7.77 9.65 15.92 14.98 13.27 5.88 3.28 10.11 9.94 14.15 6.16 11.74 5.97 2.54 8.16 1.79 11.01 7.41 4.31 14.75 
13.35 12.88 4.13 6.37 2.42 5.24 14.92 1.85 12.14 10.17 10.28 15.68 5.87 9.79 12.42 5.58 1.29 11.56 2.7 10.87 4.32 10.77 6.3 12.56 
1 1 1 1 1 1 1 1 1 1 1 1 1 1 1 1 1 1 1 1 1 1 1 1 
1 1 1 1 1 1 1 1 1 1 1 1 1 1 1 1 1 1 1 1 1 1 1 1 
1 1 1 1 1 1 1 1 1 1 1 1 1 1 1 1 1 1 1 1 1 1 1 1 
1 1 1 1 1 1 1 1 1 1 1 1 1 1 1 1 1 1 1 1 1 1 1 1 
1 1 1 1 1 1 1 1 1 1 1 1 1 1 1 1 1 1 1 1 1 1 1 1 
1 1 1 1 1 1 1 1 1 1 1 1 1 1 1 1 1 1 1 1 1 1 1 1 
1 1 1 1 1 1 1 1 1 1 1 1 1 1 1 1 1 1 1 1 1 1 1 1 
1 1 1 1 1 1 1 1 1 1 1 1 1 1 1 1 1 1 1 1 1 1 1 1 
1 1 1 1 1 1 1 1 1 1 1 1 1 1 1 1 1 1 1 1 1 1 1 1 
1 1 1 1 1 1 1 1 1 1 1 1 1 1 1 1 1 1 1 1 1 1 1 1 
1 1 1 1 1 1 1 1 1 1 1 1 1 1 1 1 1 1 1 1 1 1 1 1 
1 1 1 1 1 1 1 1 1 1 1 1 1 1 1 1 1 1 1 1 1 1 1 1 
0.01 0.01 0.01 0.01 0.01 0.01 0.01 0.01 0.01 0.01 0.01 0.01 0.01 0.01 0.01 0.01 0.01 0.01 0.01 0.01 0.01 0.01 0.01 0.01 
0.02 0.02 0.02 0.02 0.02 0.02 0.02 0.02 0.02 0.02 0.02 0.02 0.02 0.02 0.02 0.02 0.02 0.02 0.02 0.02 0.02 0.02 0.02 0.02 
0.03 0.03 0.03 0.03 0.03 0.03 0.03 0.03 0.03 0.03 0.03 0.03 0.03 0.03 0.03 0.03 0.03 0.03 0.03 0.03 0.03 0.03 0.03 0.03 
0.04 0.04 0.04 0.04 0.04 0.04 0.04 0.04 0.04 0.04 0.04 0.04 0.04 0.04 0.04 0.04 0.04 0.04 0.04 0.04 0.04 0.04 0.04 0.04 
0.05 0.05 0.05 0.05 0.05 0.05 0.05 0.05 0.05 0.05 0.05 0.05 0.05 0.05 0.05 0.05 0.05 0.05 0.05 0.05 0.05 0.05 0.05 0.05 
0.06 0.06 0.06 0.06 0.06 0.06 0.06 0.06 0.06 0.06 0.06 0.06 0.06 0.06 0.06 0.06 0.06 0.06 0.06 0.06 0.06 0.06 0.06 0.06 
0.07 0.07 0.07 0.07 0.07 0.07 0.07 0.07 0.07 0.07 0.07 0.07 0.07 0.07 0.07 0.07 0.07 0.07 0.07 0.07 0.07 0.07 0.07 0.07 
0.08 0.08 0.08 0.08 0.08 0.08 0.08 0.08 0.08 0.08 0.08 0.08 0.08 0.08 0.08 0.08 0.08 0.08 0.08 0.08 0.08 0.08 0.08 0.08 
0.09 0.09 0.09 0.09 0.09 0.09 0.09 0.09 0.09 0.09 0.09 0.09 0.09 0.09 0.09 0.09 0.09 0.09 0.09 0.09 0.09 0.09 0.09 0.09 
0.1 0.1 0.1 0.1 0.1 0.1 0.1 0.1 0.1 0.1 0.1 0.1 0.1 0.1 0.1 0.1 0.1 0.1 0.1 0.1 0.1 0.1 0.1 0.1 
0.5 0.5 0.5 0.5 0.5 0.5 0.5 0.5 0.5 0.5 0.5 0.5 0.5 0.5 0.5 0.5 0.5 0.5 0.5 0.5 0.5 0.5 0.5 0.5 
1 1 1 1 1 1 1 1 1 1 1 1 1 1 1 1 1 1 1 1 1 1 1 1 
